200
1000
692
690
686
681
680
680
674
665
664
662
660
660
659
655
648
646
645
645
644
643
642
640
637
636
636
634
631
627
622
616
615
612
612
610
609
608
607
603
601
601
599
598
593
593
592
592
584
577
577
576
573
568
563
563
563
561
556
556
555
553
547
546
542
541
539
539
538
538
535
532
529
519
516
513
498
494
490
483
482
481
477
474
472
471
471
467
465
465
463
459
456
453
452
452
451
449
448
446
445
444
444
437
432
431
431
427
418
417
415
414
414
412
409
408
401
399
399
399
399
399
395
395
394
392
386
386
385
381
377
374
372
372
371
371
370
369
369
365
364
359
352
352
351
350
346
340
339
338
338
336
332
332
332
329
326
324
317
314
314
307
307
298
294
294
292
290
288
287
282
282
280
278
270
266
265
262
257
252
249
248
248
247
239
239
239
239
238
235
233
233
232
228
228
223
218
216
214
211
209
204
